
Gurobi 7.0.2 (linux64, Python) logging started Tue Mar  7 15:26:42 2017


Gurobi 7.0.2 (linux64, Python) logging started Sat Mar 11 19:53:51 2017


Gurobi 7.0.2 (linux64, Python) logging started Sat Mar 11 19:55:06 2017


Gurobi 7.0.2 (linux64, Python) logging started Sat Mar 11 19:56:39 2017


Gurobi 7.0.2 (linux64, Python) logging started Sat Mar 11 20:00:49 2017


Gurobi 7.0.2 (linux64, Python) logging started Sat Mar 11 20:05:40 2017


Gurobi 7.0.2 (linux64, Python) logging started Sat Mar 11 20:08:52 2017


Gurobi 7.0.2 (linux64, Python) logging started Sat Mar 11 20:13:18 2017


Gurobi 7.0.2 (linux64, Python) logging started Sat Mar 11 20:19:26 2017


Gurobi 7.0.2 (linux64, Python) logging started Sat Mar 11 20:26:09 2017


Gurobi 7.0.2 (linux64, Python) logging started Sat Mar 11 20:29:37 2017


Gurobi 7.0.2 (linux64, Python) logging started Sat Mar 11 20:35:12 2017


Gurobi 7.0.2 (linux64, Python) logging started Sat Mar 11 20:41:14 2017


Gurobi 7.0.2 (linux64, Python) logging started Mon Mar 13 10:57:52 2017


Gurobi 7.0.2 (linux64, Python) logging started Mon Mar 13 10:58:34 2017


Gurobi 7.0.2 (linux64, Python) logging started Mon Mar 13 11:03:17 2017


Gurobi 7.0.2 (linux64, Python) logging started Mon Mar 13 11:12:27 2017


Gurobi 7.0.2 (linux64, Python) logging started Mon Mar 13 11:19:56 2017


Gurobi 7.0.2 (linux64, Python) logging started Mon Mar 13 11:23:22 2017


Gurobi 7.0.2 (linux64, Python) logging started Mon Mar 13 11:27:16 2017


Gurobi 7.0.2 (linux64, Python) logging started Mon Mar 13 11:33:41 2017


Gurobi 7.0.2 (linux64, Python) logging started Mon Mar 13 11:39:14 2017


Gurobi 7.0.2 (linux64, Python) logging started Mon Mar 13 11:49:07 2017

